
  32    1
  10

   0   0  10 2 3 4 6 7 8 10 11 13 21 
   9   1   6 20 19 17 16 12 9 
   5   2   6 31 20 19 15 12 5 
   3   2   6 27 26 24 19 18 16 
   8   2   8 29 28 27 26 25 24 23 18 
   4   2   6 28 27 26 24 23 14 
   9   2   6 29 26 25 24 22 19 
   2   3   5 29 26 24 22 16 
   4   3   4 27 26 24 15 
   4   2   5 27 26 25 23 22 
   7   1   3 30 27 15 
   6   2   3 29 24 22 
   9   1   3 25 24 22 
   7   3   2 30 18 
   3   3   2 23 22 
   9   2   2 25 23 
   9   1   2 30 25 
   8   2   1 22 
   5   2   1 28 
   5   2   1 24 
   9   3   1 23 
   1   2   1 32
   4   1   1 32
   5   1   1 32
   5   1   1 32
  10   3   1 32
   6   1   1 32
   4   2   1 32
   9   3   1 32
   5   2   1 32
   1   3   1 32
   0   0   0 
